SPS/GLPK/SPS_CAR.dat
# Data section
data;

set ParkingLots := p1 p2 p3 p4 p5;
set WaitingCars := Car1 Car2 Car3 Car4;

param :
        maxCarCapacity :=
    p1     25
    p2     25
    p3     25
    p4     25
    p5     25;

param :
        initNumOfCar :=
    p1     14
    p2     15
    p3     14
    p4     15
    p5     14;